
******************************************************************************
This program contains Ipopt, a library for large-scale nonlinear optimization.
 Ipopt is released as open source code under the Eclipse Public License (EPL).
         For more information visit https://github.com/coin-or/Ipopt
******************************************************************************

This is Ipopt version 3.14.19, running with linear solver MUMPS 5.8.1.

Number of nonzeros in equality constraint Jacobian...:     2204
Number of nonzeros in inequality constraint Jacobian.:        0
Number of nonzeros in Lagrangian Hessian.............:      525

Total number of variables............................:      647
                     variables with only lower bounds:        0
                variables with lower and upper bounds:      232
                     variables with only upper bounds:        0
Total number of equality constraints.................:      639
Total number of inequality constraints...............:        0
        inequality constraints with only lower bounds:        0
   inequality constraints with lower and upper bounds:        0
        inequality constraints with only upper bounds:        0

iter    objective    inf_pr   inf_du lg(mu)  ||d||  lg(rg) alpha_du alpha_pr  ls
   0  4.9463047e+00 9.90e+01 2.33e-05  -1.0 0.00e+00    -  0.00e+00 0.00e+00   0
   1  4.9654055e+00 1.59e+01 1.82e+01  -1.0 1.00e+02    -  4.96e-02 9.90e-01h  1
   2  4.9562584e+00 4.82e+00 5.04e-01  -1.0 1.38e+01    -  9.22e-01 1.00e+00h  1
   3  4.9468267e+00 7.99e+00 7.25e-02  -1.0 5.63e+00    -  9.90e-01 1.00e+00h  1
   4  4.9502918e+00 4.01e+00 1.27e-03  -1.0 9.50e+00    -  1.00e+00 1.00e+00h  1
   5  4.9485715e+00 3.60e-01 1.47e-04  -1.0 2.13e+00    -  1.00e+00 1.00e+00h  1
   6  4.9465263e+00 2.66e-01 7.73e-04  -1.7 7.29e-01    -  1.00e+00 1.00e+00h  1
   7  4.9464300e+00 1.94e-02 5.54e-06  -1.7 4.84e-01    -  1.00e+00 1.00e+00h  1
   8  4.9463288e+00 6.71e-02 3.45e-03  -3.8 6.19e-01    -  9.98e-01 1.00e+00h  1
   9  4.9463270e+00 3.57e-04 3.33e-08  -3.8 1.12e-01    -  1.00e+00 1.00e+00h  1
iter    objective    inf_pr   inf_du lg(mu)  ||d||  lg(rg) alpha_du alpha_pr  ls
  10  4.9463268e+00 5.81e-06 1.02e-04  -5.7 6.74e-03    -  9.91e-01 1.00e+00h  1
  11  4.9463051e+00 1.93e-07 1.50e-05  -5.7 5.88e-01    -  7.45e-01 1.00e+00h  1
  12  4.9462993e+00 3.25e-09 1.42e-05  -8.6 1.49e-01    -  8.27e-01 1.00e+00h  1
  13  4.9462974e+00 2.04e-09 1.68e-06  -8.6 5.72e-02    -  9.95e-01 9.34e-01h  1
  14  4.9462974e+00 9.45e-12 1.67e-13  -8.6 1.02e-03    -  1.00e+00 1.00e+00f  1

Number of Iterations....: 14

                                   (scaled)                 (unscaled)
Objective...............:   4.9462973702789110e+00    4.9462973702789110e+00
Dual infeasibility......:   1.6692203175239229e-13    1.6692203175239229e-13
Constraint violation....:   9.4466656719384177e-12    9.4466656719384177e-12
Variable bound violation:   0.0000000000000000e+00    0.0000000000000000e+00
Complementarity.........:   3.4821787183863155e-09    3.4821787183863155e-09
Overall NLP error.......:   3.4821787183863155e-09    3.4821787183863155e-09


Number of objective function evaluations             = 15
Number of objective gradient evaluations             = 15
Number of equality constraint evaluations            = 15
Number of inequality constraint evaluations          = 0
Number of equality constraint Jacobian evaluations   = 15
Number of inequality constraint Jacobian evaluations = 0
Number of Lagrangian Hessian evaluations             = 14
Total seconds in IPOPT                               = 0.079

EXIT: Optimal Solution Found.
